num_wann         =  28
num_bands        =  48 
spinors = .true.
guiding_centres  =  T

begin projections
Ga:s,p
Bi:p
As:p
end projections



begin unit_cell_cart
     4.3001409     0.0000000     0.0000000
     0.0000000     4.3001409     0.0000000
     0.0000000     0.0000000     6.1458611
end unit_cell_cart

begin atoms_cart
Ga       2.1500704     0.0000000     4.4602728
Ga       0.0000000     2.1500704     1.6855885
Bi       0.0000000     0.0000000     0.0000000
As       2.1500704     2.1500704     3.0729306
end atoms_cart

mp_grid =     7     7     5

begin kpoints
      0.000000000000      0.000000000000      0.000000000000
      0.142857142857      0.000000000000      0.000000000000
      0.285714285714      0.000000000000      0.000000000000
      0.428571428571      0.000000000000      0.000000000000
     -0.428571428571      0.000000000000      0.000000000000
     -0.285714285714      0.000000000000      0.000000000000
     -0.142857142857      0.000000000000      0.000000000000
      0.000000000000      0.142857142857      0.000000000000
      0.142857142857      0.142857142857      0.000000000000
      0.285714285714      0.142857142857      0.000000000000
      0.428571428571      0.142857142857      0.000000000000
     -0.428571428571      0.142857142857      0.000000000000
     -0.285714285714      0.142857142857      0.000000000000
     -0.142857142857      0.142857142857      0.000000000000
      0.000000000000      0.285714285714      0.000000000000
      0.142857142857      0.285714285714      0.000000000000
      0.285714285714      0.285714285714      0.000000000000
      0.428571428571      0.285714285714      0.000000000000
     -0.428571428571      0.285714285714      0.000000000000
     -0.285714285714      0.285714285714      0.000000000000
     -0.142857142857      0.285714285714      0.000000000000
      0.000000000000      0.428571428571      0.000000000000
      0.142857142857      0.428571428571      0.000000000000
      0.285714285714      0.428571428571      0.000000000000
      0.428571428571      0.428571428571      0.000000000000
     -0.428571428571      0.428571428571      0.000000000000
     -0.285714285714      0.428571428571      0.000000000000
     -0.142857142857      0.428571428571      0.000000000000
      0.000000000000     -0.428571428571      0.000000000000
      0.142857142857     -0.428571428571      0.000000000000
      0.285714285714     -0.428571428571      0.000000000000
      0.428571428571     -0.428571428571      0.000000000000
     -0.428571428571     -0.428571428571      0.000000000000
     -0.285714285714     -0.428571428571      0.000000000000
     -0.142857142857     -0.428571428571      0.000000000000
      0.000000000000     -0.285714285714      0.000000000000
      0.142857142857     -0.285714285714      0.000000000000
      0.285714285714     -0.285714285714      0.000000000000
      0.428571428571     -0.285714285714      0.000000000000
     -0.428571428571     -0.285714285714      0.000000000000
     -0.285714285714     -0.285714285714      0.000000000000
     -0.142857142857     -0.285714285714      0.000000000000
      0.000000000000     -0.142857142857      0.000000000000
      0.142857142857     -0.142857142857      0.000000000000
      0.285714285714     -0.142857142857      0.000000000000
      0.428571428571     -0.142857142857      0.000000000000
     -0.428571428571     -0.142857142857      0.000000000000
     -0.285714285714     -0.142857142857      0.000000000000
     -0.142857142857     -0.142857142857      0.000000000000
      0.000000000000      0.000000000000      0.200000000000
      0.142857142857      0.000000000000      0.200000000000
      0.285714285714      0.000000000000      0.200000000000
      0.428571428571      0.000000000000      0.200000000000
     -0.428571428571      0.000000000000      0.200000000000
     -0.285714285714      0.000000000000      0.200000000000
     -0.142857142857      0.000000000000      0.200000000000
      0.000000000000      0.142857142857      0.200000000000
      0.142857142857      0.142857142857      0.200000000000
      0.285714285714      0.142857142857      0.200000000000
      0.428571428571      0.142857142857      0.200000000000
     -0.428571428571      0.142857142857      0.200000000000
     -0.285714285714      0.142857142857      0.200000000000
     -0.142857142857      0.142857142857      0.200000000000
      0.000000000000      0.285714285714      0.200000000000
      0.142857142857      0.285714285714      0.200000000000
      0.285714285714      0.285714285714      0.200000000000
      0.428571428571      0.285714285714      0.200000000000
     -0.428571428571      0.285714285714      0.200000000000
     -0.285714285714      0.285714285714      0.200000000000
     -0.142857142857      0.285714285714      0.200000000000
      0.000000000000      0.428571428571      0.200000000000
      0.142857142857      0.428571428571      0.200000000000
      0.285714285714      0.428571428571      0.200000000000
      0.428571428571      0.428571428571      0.200000000000
     -0.428571428571      0.428571428571      0.200000000000
     -0.285714285714      0.428571428571      0.200000000000
     -0.142857142857      0.428571428571      0.200000000000
      0.000000000000     -0.428571428571      0.200000000000
      0.142857142857     -0.428571428571      0.200000000000
      0.285714285714     -0.428571428571      0.200000000000
      0.428571428571     -0.428571428571      0.200000000000
     -0.428571428571     -0.428571428571      0.200000000000
     -0.285714285714     -0.428571428571      0.200000000000
     -0.142857142857     -0.428571428571      0.200000000000
      0.000000000000     -0.285714285714      0.200000000000
      0.142857142857     -0.285714285714      0.200000000000
      0.285714285714     -0.285714285714      0.200000000000
      0.428571428571     -0.285714285714      0.200000000000
     -0.428571428571     -0.285714285714      0.200000000000
     -0.285714285714     -0.285714285714      0.200000000000
     -0.142857142857     -0.285714285714      0.200000000000
      0.000000000000     -0.142857142857      0.200000000000
      0.142857142857     -0.142857142857      0.200000000000
      0.285714285714     -0.142857142857      0.200000000000
      0.428571428571     -0.142857142857      0.200000000000
     -0.428571428571     -0.142857142857      0.200000000000
     -0.285714285714     -0.142857142857      0.200000000000
     -0.142857142857     -0.142857142857      0.200000000000
      0.000000000000      0.000000000000      0.400000000000
      0.142857142857      0.000000000000      0.400000000000
      0.285714285714      0.000000000000      0.400000000000
      0.428571428571      0.000000000000      0.400000000000
     -0.428571428571      0.000000000000      0.400000000000
     -0.285714285714      0.000000000000      0.400000000000
     -0.142857142857      0.000000000000      0.400000000000
      0.000000000000      0.142857142857      0.400000000000
      0.142857142857      0.142857142857      0.400000000000
      0.285714285714      0.142857142857      0.400000000000
      0.428571428571      0.142857142857      0.400000000000
     -0.428571428571      0.142857142857      0.400000000000
     -0.285714285714      0.142857142857      0.400000000000
     -0.142857142857      0.142857142857      0.400000000000
      0.000000000000      0.285714285714      0.400000000000
      0.142857142857      0.285714285714      0.400000000000
      0.285714285714      0.285714285714      0.400000000000
      0.428571428571      0.285714285714      0.400000000000
     -0.428571428571      0.285714285714      0.400000000000
     -0.285714285714      0.285714285714      0.400000000000
     -0.142857142857      0.285714285714      0.400000000000
      0.000000000000      0.428571428571      0.400000000000
      0.142857142857      0.428571428571      0.400000000000
      0.285714285714      0.428571428571      0.400000000000
      0.428571428571      0.428571428571      0.400000000000
     -0.428571428571      0.428571428571      0.400000000000
     -0.285714285714      0.428571428571      0.400000000000
     -0.142857142857      0.428571428571      0.400000000000
      0.000000000000     -0.428571428571      0.400000000000
      0.142857142857     -0.428571428571      0.400000000000
      0.285714285714     -0.428571428571      0.400000000000
      0.428571428571     -0.428571428571      0.400000000000
     -0.428571428571     -0.428571428571      0.400000000000
     -0.285714285714     -0.428571428571      0.400000000000
     -0.142857142857     -0.428571428571      0.400000000000
      0.000000000000     -0.285714285714      0.400000000000
      0.142857142857     -0.285714285714      0.400000000000
      0.285714285714     -0.285714285714      0.400000000000
      0.428571428571     -0.285714285714      0.400000000000
     -0.428571428571     -0.285714285714      0.400000000000
     -0.285714285714     -0.285714285714      0.400000000000
     -0.142857142857     -0.285714285714      0.400000000000
      0.000000000000     -0.142857142857      0.400000000000
      0.142857142857     -0.142857142857      0.400000000000
      0.285714285714     -0.142857142857      0.400000000000
      0.428571428571     -0.142857142857      0.400000000000
     -0.428571428571     -0.142857142857      0.400000000000
     -0.285714285714     -0.142857142857      0.400000000000
     -0.142857142857     -0.142857142857      0.400000000000
      0.000000000000      0.000000000000     -0.400000000000
      0.142857142857      0.000000000000     -0.400000000000
      0.285714285714      0.000000000000     -0.400000000000
      0.428571428571      0.000000000000     -0.400000000000
     -0.428571428571      0.000000000000     -0.400000000000
     -0.285714285714      0.000000000000     -0.400000000000
     -0.142857142857      0.000000000000     -0.400000000000
      0.000000000000      0.142857142857     -0.400000000000
      0.142857142857      0.142857142857     -0.400000000000
      0.285714285714      0.142857142857     -0.400000000000
      0.428571428571      0.142857142857     -0.400000000000
     -0.428571428571      0.142857142857     -0.400000000000
     -0.285714285714      0.142857142857     -0.400000000000
     -0.142857142857      0.142857142857     -0.400000000000
      0.000000000000      0.285714285714     -0.400000000000
      0.142857142857      0.285714285714     -0.400000000000
      0.285714285714      0.285714285714     -0.400000000000
      0.428571428571      0.285714285714     -0.400000000000
     -0.428571428571      0.285714285714     -0.400000000000
     -0.285714285714      0.285714285714     -0.400000000000
     -0.142857142857      0.285714285714     -0.400000000000
      0.000000000000      0.428571428571     -0.400000000000
      0.142857142857      0.428571428571     -0.400000000000
      0.285714285714      0.428571428571     -0.400000000000
      0.428571428571      0.428571428571     -0.400000000000
     -0.428571428571      0.428571428571     -0.400000000000
     -0.285714285714      0.428571428571     -0.400000000000
     -0.142857142857      0.428571428571     -0.400000000000
      0.000000000000     -0.428571428571     -0.400000000000
      0.142857142857     -0.428571428571     -0.400000000000
      0.285714285714     -0.428571428571     -0.400000000000
      0.428571428571     -0.428571428571     -0.400000000000
     -0.428571428571     -0.428571428571     -0.400000000000
     -0.285714285714     -0.428571428571     -0.400000000000
     -0.142857142857     -0.428571428571     -0.400000000000
      0.000000000000     -0.285714285714     -0.400000000000
      0.142857142857     -0.285714285714     -0.400000000000
      0.285714285714     -0.285714285714     -0.400000000000
      0.428571428571     -0.285714285714     -0.400000000000
     -0.428571428571     -0.285714285714     -0.400000000000
     -0.285714285714     -0.285714285714     -0.400000000000
     -0.142857142857     -0.285714285714     -0.400000000000
      0.000000000000     -0.142857142857     -0.400000000000
      0.142857142857     -0.142857142857     -0.400000000000
      0.285714285714     -0.142857142857     -0.400000000000
      0.428571428571     -0.142857142857     -0.400000000000
     -0.428571428571     -0.142857142857     -0.400000000000
     -0.285714285714     -0.142857142857     -0.400000000000
     -0.142857142857     -0.142857142857     -0.400000000000
      0.000000000000      0.000000000000     -0.200000000000
      0.142857142857      0.000000000000     -0.200000000000
      0.285714285714      0.000000000000     -0.200000000000
      0.428571428571      0.000000000000     -0.200000000000
     -0.428571428571      0.000000000000     -0.200000000000
     -0.285714285714      0.000000000000     -0.200000000000
     -0.142857142857      0.000000000000     -0.200000000000
      0.000000000000      0.142857142857     -0.200000000000
      0.142857142857      0.142857142857     -0.200000000000
      0.285714285714      0.142857142857     -0.200000000000
      0.428571428571      0.142857142857     -0.200000000000
     -0.428571428571      0.142857142857     -0.200000000000
     -0.285714285714      0.142857142857     -0.200000000000
     -0.142857142857      0.142857142857     -0.200000000000
      0.000000000000      0.285714285714     -0.200000000000
      0.142857142857      0.285714285714     -0.200000000000
      0.285714285714      0.285714285714     -0.200000000000
      0.428571428571      0.285714285714     -0.200000000000
     -0.428571428571      0.285714285714     -0.200000000000
     -0.285714285714      0.285714285714     -0.200000000000
     -0.142857142857      0.285714285714     -0.200000000000
      0.000000000000      0.428571428571     -0.200000000000
      0.142857142857      0.428571428571     -0.200000000000
      0.285714285714      0.428571428571     -0.200000000000
      0.428571428571      0.428571428571     -0.200000000000
     -0.428571428571      0.428571428571     -0.200000000000
     -0.285714285714      0.428571428571     -0.200000000000
     -0.142857142857      0.428571428571     -0.200000000000
      0.000000000000     -0.428571428571     -0.200000000000
      0.142857142857     -0.428571428571     -0.200000000000
      0.285714285714     -0.428571428571     -0.200000000000
      0.428571428571     -0.428571428571     -0.200000000000
     -0.428571428571     -0.428571428571     -0.200000000000
     -0.285714285714     -0.428571428571     -0.200000000000
     -0.142857142857     -0.428571428571     -0.200000000000
      0.000000000000     -0.285714285714     -0.200000000000
      0.142857142857     -0.285714285714     -0.200000000000
      0.285714285714     -0.285714285714     -0.200000000000
      0.428571428571     -0.285714285714     -0.200000000000
     -0.428571428571     -0.285714285714     -0.200000000000
     -0.285714285714     -0.285714285714     -0.200000000000
     -0.142857142857     -0.285714285714     -0.200000000000
      0.000000000000     -0.142857142857     -0.200000000000
      0.142857142857     -0.142857142857     -0.200000000000
      0.285714285714     -0.142857142857     -0.200000000000
      0.428571428571     -0.142857142857     -0.200000000000
     -0.428571428571     -0.142857142857     -0.200000000000
     -0.285714285714     -0.142857142857     -0.200000000000
     -0.142857142857     -0.142857142857     -0.200000000000
end kpoints
