Ga2 Bi1 As1
1.0
        4.3001408577         0.0000000000         0.0000000000
        0.0000000000         4.3001408577         0.0000000000
        0.0000000000         0.0000000000         6.1458611488
   Ga   Bi   As
    2    1    1
Direct
     0.500000000        -0.000000000         0.725736017
    -0.000000000         0.500000000         0.274264003
     0.000000000         0.000000000         0.000000000
     0.500000000         0.500000000         0.500000000
