Ga2 Bi1 As1                             
   1.00000000000000     
     4.3001408576999998    0.0000000000000000    0.0000000000000000
     0.0000000000000000    4.3001408576999998    0.0000000000000000
     0.0000000000000000    0.0000000000000000    6.1458611487999999
   Ga   Bi   As
     2     1     1
Direct
  0.5000000000000000  0.0000000000000000  0.7257360170000027
  0.0000000000000000  0.5000000000000000  0.2742640029999990
  0.0000000000000000  0.0000000000000000  0.0000000000000000
  0.5000000000000000  0.5000000000000000  0.5000000000000000
 
  0.00000000E+00  0.00000000E+00  0.00000000E+00
  0.00000000E+00  0.00000000E+00  0.00000000E+00
  0.00000000E+00  0.00000000E+00  0.00000000E+00
  0.00000000E+00  0.00000000E+00  0.00000000E+00
