K-points alon1g high symmetry lines
70
Line-mode
rec
0.5000   0.5000   0.0000   ! M
0.0000   0.0000   0.0000   ! \Gamma

0.0000   0.0000   0.0000   ! \Gamma
0.0000   0.0000   0.5000   ! Z

0.0000   0.0000   0.5000   ! Z
0.0000   0.5000   0.5000   ! R
