num_wann         =  28
num_bands        =  48 
spinors = .true.
guiding_centres  =  T

begin projections
Ga:s,p
Bi:p
As:p
end projections

num_iter         =  0
num_print_cycles =  100
dis_num_iter     =  4000
use_ws_distance  =  T
dis_froz_min     =    2.5
dis_froz_max     =    4.5
dis_win_min      =   -8.0
#dis_win_max     =    4.4

bands_plot      =  true
bands_num_points  =100
#!bands_plot_mode= cut
#!hr_cutoff=0.01
#!dist_cutoff=15.0
#!dist_cutoff=6.0
#!restart = wannierise
#!restart = plot
write_xyz        =  T
write_hr = .true.

begin kpoint_path
G 0.0000   0.0000   0.0000   X 0.0000   0.5000   0.0000   
X 0.0000   0.5000   0.0000   M 0.5000   0.5000   0.0000   
M 0.5000   0.5000   0.0000   G 0.0000   0.0000   0.0000   
G 0.0000   0.0000   0.0000   Z 0.0000   0.0000   0.5000   
Z 0.0000   0.0000   0.5000   R 0.0000   0.5000   0.5000   
R 0.0000   0.5000   0.5000   A 0.5000   0.5000   0.5000   
A 0.5000   0.5000   0.5000   Z 0.0000   0.0000   0.5000   
end kpoint_path


begin unit_cell_cart
     4.3001409     0.0000000     0.0000000
     0.0000000     4.3001409     0.0000000
     0.0000000     0.0000000     6.1458611
end unit_cell_cart

begin atoms_cart
Ga       2.1500704     0.0000000     4.4602728
Ga       0.0000000     2.1500704     1.6855885
Bi       0.0000000     0.0000000     0.0000000
As       2.1500704     2.1500704     3.0729306
end atoms_cart

mp_grid =     7     7     5

begin kpoints
      0.000000000000      0.000000000000      0.000000000000
      0.142857142857      0.000000000000      0.000000000000
      0.285714285714      0.000000000000      0.000000000000
      0.428571428571      0.000000000000      0.000000000000
     -0.428571428571      0.000000000000      0.000000000000
     -0.285714285714      0.000000000000      0.000000000000
     -0.142857142857      0.000000000000      0.000000000000
      0.000000000000      0.142857142857      0.000000000000
      0.142857142857      0.142857142857      0.000000000000
      0.285714285714      0.142857142857      0.000000000000
      0.428571428571      0.142857142857      0.000000000000
     -0.428571428571      0.142857142857      0.000000000000
     -0.285714285714      0.142857142857      0.000000000000
     -0.142857142857      0.142857142857      0.000000000000
      0.000000000000      0.285714285714      0.000000000000
      0.142857142857      0.285714285714      0.000000000000
      0.285714285714      0.285714285714      0.000000000000
      0.428571428571      0.285714285714      0.000000000000
     -0.428571428571      0.285714285714      0.000000000000
     -0.285714285714      0.285714285714      0.000000000000
     -0.142857142857      0.285714285714      0.000000000000
      0.000000000000      0.428571428571      0.000000000000
      0.142857142857      0.428571428571      0.000000000000
      0.285714285714      0.428571428571      0.000000000000
      0.428571428571      0.428571428571      0.000000000000
     -0.428571428571      0.428571428571      0.000000000000
     -0.285714285714      0.428571428571      0.000000000000
     -0.142857142857      0.428571428571      0.000000000000
      0.000000000000     -0.428571428571      0.000000000000
      0.142857142857     -0.428571428571      0.000000000000
      0.285714285714     -0.428571428571      0.000000000000
      0.428571428571     -0.428571428571      0.000000000000
     -0.428571428571     -0.428571428571      0.000000000000
     -0.285714285714     -0.428571428571      0.000000000000
     -0.142857142857     -0.428571428571      0.000000000000
      0.000000000000     -0.285714285714      0.000000000000
      0.142857142857     -0.285714285714      0.000000000000
      0.285714285714     -0.285714285714      0.000000000000
      0.428571428571     -0.285714285714      0.000000000000
     -0.428571428571     -0.285714285714      0.000000000000
     -0.285714285714     -0.285714285714      0.000000000000
     -0.142857142857     -0.285714285714      0.000000000000
      0.000000000000     -0.142857142857      0.000000000000
      0.142857142857     -0.142857142857      0.000000000000
      0.285714285714     -0.142857142857      0.000000000000
      0.428571428571     -0.142857142857      0.000000000000
     -0.428571428571     -0.142857142857      0.000000000000
     -0.285714285714     -0.142857142857      0.000000000000
     -0.142857142857     -0.142857142857      0.000000000000
      0.000000000000      0.000000000000      0.200000000000
      0.142857142857      0.000000000000      0.200000000000
      0.285714285714      0.000000000000      0.200000000000
      0.428571428571      0.000000000000      0.200000000000
     -0.428571428571      0.000000000000      0.200000000000
     -0.285714285714      0.000000000000      0.200000000000
     -0.142857142857      0.000000000000      0.200000000000
      0.000000000000      0.142857142857      0.200000000000
      0.142857142857      0.142857142857      0.200000000000
      0.285714285714      0.142857142857      0.200000000000
      0.428571428571      0.142857142857      0.200000000000
     -0.428571428571      0.142857142857      0.200000000000
     -0.285714285714      0.142857142857      0.200000000000
     -0.142857142857      0.142857142857      0.200000000000
      0.000000000000      0.285714285714      0.200000000000
      0.142857142857      0.285714285714      0.200000000000
      0.285714285714      0.285714285714      0.200000000000
      0.428571428571      0.285714285714      0.200000000000
     -0.428571428571      0.285714285714      0.200000000000
     -0.285714285714      0.285714285714      0.200000000000
     -0.142857142857      0.285714285714      0.200000000000
      0.000000000000      0.428571428571      0.200000000000
      0.142857142857      0.428571428571      0.200000000000
      0.285714285714      0.428571428571      0.200000000000
      0.428571428571      0.428571428571      0.200000000000
     -0.428571428571      0.428571428571      0.200000000000
     -0.285714285714      0.428571428571      0.200000000000
     -0.142857142857      0.428571428571      0.200000000000
      0.000000000000     -0.428571428571      0.200000000000
      0.142857142857     -0.428571428571      0.200000000000
      0.285714285714     -0.428571428571      0.200000000000
      0.428571428571     -0.428571428571      0.200000000000
     -0.428571428571     -0.428571428571      0.200000000000
     -0.285714285714     -0.428571428571      0.200000000000
     -0.142857142857     -0.428571428571      0.200000000000
      0.000000000000     -0.285714285714      0.200000000000
      0.142857142857     -0.285714285714      0.200000000000
      0.285714285714     -0.285714285714      0.200000000000
      0.428571428571     -0.285714285714      0.200000000000
     -0.428571428571     -0.285714285714      0.200000000000
     -0.285714285714     -0.285714285714      0.200000000000
     -0.142857142857     -0.285714285714      0.200000000000
      0.000000000000     -0.142857142857      0.200000000000
      0.142857142857     -0.142857142857      0.200000000000
      0.285714285714     -0.142857142857      0.200000000000
      0.428571428571     -0.142857142857      0.200000000000
     -0.428571428571     -0.142857142857      0.200000000000
     -0.285714285714     -0.142857142857      0.200000000000
     -0.142857142857     -0.142857142857      0.200000000000
      0.000000000000      0.000000000000      0.400000000000
      0.142857142857      0.000000000000      0.400000000000
      0.285714285714      0.000000000000      0.400000000000
      0.428571428571      0.000000000000      0.400000000000
     -0.428571428571      0.000000000000      0.400000000000
     -0.285714285714      0.000000000000      0.400000000000
     -0.142857142857      0.000000000000      0.400000000000
      0.000000000000      0.142857142857      0.400000000000
      0.142857142857      0.142857142857      0.400000000000
      0.285714285714      0.142857142857      0.400000000000
      0.428571428571      0.142857142857      0.400000000000
     -0.428571428571      0.142857142857      0.400000000000
     -0.285714285714      0.142857142857      0.400000000000
     -0.142857142857      0.142857142857      0.400000000000
      0.000000000000      0.285714285714      0.400000000000
      0.142857142857      0.285714285714      0.400000000000
      0.285714285714      0.285714285714      0.400000000000
      0.428571428571      0.285714285714      0.400000000000
     -0.428571428571      0.285714285714      0.400000000000
     -0.285714285714      0.285714285714      0.400000000000
     -0.142857142857      0.285714285714      0.400000000000
      0.000000000000      0.428571428571      0.400000000000
      0.142857142857      0.428571428571      0.400000000000
      0.285714285714      0.428571428571      0.400000000000
      0.428571428571      0.428571428571      0.400000000000
     -0.428571428571      0.428571428571      0.400000000000
     -0.285714285714      0.428571428571      0.400000000000
     -0.142857142857      0.428571428571      0.400000000000
      0.000000000000     -0.428571428571      0.400000000000
      0.142857142857     -0.428571428571      0.400000000000
      0.285714285714     -0.428571428571      0.400000000000
      0.428571428571     -0.428571428571      0.400000000000
     -0.428571428571     -0.428571428571      0.400000000000
     -0.285714285714     -0.428571428571      0.400000000000
     -0.142857142857     -0.428571428571      0.400000000000
      0.000000000000     -0.285714285714      0.400000000000
      0.142857142857     -0.285714285714      0.400000000000
      0.285714285714     -0.285714285714      0.400000000000
      0.428571428571     -0.285714285714      0.400000000000
     -0.428571428571     -0.285714285714      0.400000000000
     -0.285714285714     -0.285714285714      0.400000000000
     -0.142857142857     -0.285714285714      0.400000000000
      0.000000000000     -0.142857142857      0.400000000000
      0.142857142857     -0.142857142857      0.400000000000
      0.285714285714     -0.142857142857      0.400000000000
      0.428571428571     -0.142857142857      0.400000000000
     -0.428571428571     -0.142857142857      0.400000000000
     -0.285714285714     -0.142857142857      0.400000000000
     -0.142857142857     -0.142857142857      0.400000000000
      0.000000000000      0.000000000000     -0.400000000000
      0.142857142857      0.000000000000     -0.400000000000
      0.285714285714      0.000000000000     -0.400000000000
      0.428571428571      0.000000000000     -0.400000000000
     -0.428571428571      0.000000000000     -0.400000000000
     -0.285714285714      0.000000000000     -0.400000000000
     -0.142857142857      0.000000000000     -0.400000000000
      0.000000000000      0.142857142857     -0.400000000000
      0.142857142857      0.142857142857     -0.400000000000
      0.285714285714      0.142857142857     -0.400000000000
      0.428571428571      0.142857142857     -0.400000000000
     -0.428571428571      0.142857142857     -0.400000000000
     -0.285714285714      0.142857142857     -0.400000000000
     -0.142857142857      0.142857142857     -0.400000000000
      0.000000000000      0.285714285714     -0.400000000000
      0.142857142857      0.285714285714     -0.400000000000
      0.285714285714      0.285714285714     -0.400000000000
      0.428571428571      0.285714285714     -0.400000000000
     -0.428571428571      0.285714285714     -0.400000000000
     -0.285714285714      0.285714285714     -0.400000000000
     -0.142857142857      0.285714285714     -0.400000000000
      0.000000000000      0.428571428571     -0.400000000000
      0.142857142857      0.428571428571     -0.400000000000
      0.285714285714      0.428571428571     -0.400000000000
      0.428571428571      0.428571428571     -0.400000000000
     -0.428571428571      0.428571428571     -0.400000000000
     -0.285714285714      0.428571428571     -0.400000000000
     -0.142857142857      0.428571428571     -0.400000000000
      0.000000000000     -0.428571428571     -0.400000000000
      0.142857142857     -0.428571428571     -0.400000000000
      0.285714285714     -0.428571428571     -0.400000000000
      0.428571428571     -0.428571428571     -0.400000000000
     -0.428571428571     -0.428571428571     -0.400000000000
     -0.285714285714     -0.428571428571     -0.400000000000
     -0.142857142857     -0.428571428571     -0.400000000000
      0.000000000000     -0.285714285714     -0.400000000000
      0.142857142857     -0.285714285714     -0.400000000000
      0.285714285714     -0.285714285714     -0.400000000000
      0.428571428571     -0.285714285714     -0.400000000000
     -0.428571428571     -0.285714285714     -0.400000000000
     -0.285714285714     -0.285714285714     -0.400000000000
     -0.142857142857     -0.285714285714     -0.400000000000
      0.000000000000     -0.142857142857     -0.400000000000
      0.142857142857     -0.142857142857     -0.400000000000
      0.285714285714     -0.142857142857     -0.400000000000
      0.428571428571     -0.142857142857     -0.400000000000
     -0.428571428571     -0.142857142857     -0.400000000000
     -0.285714285714     -0.142857142857     -0.400000000000
     -0.142857142857     -0.142857142857     -0.400000000000
      0.000000000000      0.000000000000     -0.200000000000
      0.142857142857      0.000000000000     -0.200000000000
      0.285714285714      0.000000000000     -0.200000000000
      0.428571428571      0.000000000000     -0.200000000000
     -0.428571428571      0.000000000000     -0.200000000000
     -0.285714285714      0.000000000000     -0.200000000000
     -0.142857142857      0.000000000000     -0.200000000000
      0.000000000000      0.142857142857     -0.200000000000
      0.142857142857      0.142857142857     -0.200000000000
      0.285714285714      0.142857142857     -0.200000000000
      0.428571428571      0.142857142857     -0.200000000000
     -0.428571428571      0.142857142857     -0.200000000000
     -0.285714285714      0.142857142857     -0.200000000000
     -0.142857142857      0.142857142857     -0.200000000000
      0.000000000000      0.285714285714     -0.200000000000
      0.142857142857      0.285714285714     -0.200000000000
      0.285714285714      0.285714285714     -0.200000000000
      0.428571428571      0.285714285714     -0.200000000000
     -0.428571428571      0.285714285714     -0.200000000000
     -0.285714285714      0.285714285714     -0.200000000000
     -0.142857142857      0.285714285714     -0.200000000000
      0.000000000000      0.428571428571     -0.200000000000
      0.142857142857      0.428571428571     -0.200000000000
      0.285714285714      0.428571428571     -0.200000000000
      0.428571428571      0.428571428571     -0.200000000000
     -0.428571428571      0.428571428571     -0.200000000000
     -0.285714285714      0.428571428571     -0.200000000000
     -0.142857142857      0.428571428571     -0.200000000000
      0.000000000000     -0.428571428571     -0.200000000000
      0.142857142857     -0.428571428571     -0.200000000000
      0.285714285714     -0.428571428571     -0.200000000000
      0.428571428571     -0.428571428571     -0.200000000000
     -0.428571428571     -0.428571428571     -0.200000000000
     -0.285714285714     -0.428571428571     -0.200000000000
     -0.142857142857     -0.428571428571     -0.200000000000
      0.000000000000     -0.285714285714     -0.200000000000
      0.142857142857     -0.285714285714     -0.200000000000
      0.285714285714     -0.285714285714     -0.200000000000
      0.428571428571     -0.285714285714     -0.200000000000
     -0.428571428571     -0.285714285714     -0.200000000000
     -0.285714285714     -0.285714285714     -0.200000000000
     -0.142857142857     -0.285714285714     -0.200000000000
      0.000000000000     -0.142857142857     -0.200000000000
      0.142857142857     -0.142857142857     -0.200000000000
      0.285714285714     -0.142857142857     -0.200000000000
      0.428571428571     -0.142857142857     -0.200000000000
     -0.428571428571     -0.142857142857     -0.200000000000
     -0.285714285714     -0.142857142857     -0.200000000000
     -0.142857142857     -0.142857142857     -0.200000000000
end kpoints
