SYSTEM = CsAs
ISTART =  0
ICHARG =  2
#NSW    =  300
IBRION =  8
#ISIF   =  3
EDIFF  =  1E-07
EDIFFG =  -0.01
PREC   =  Accurate
ENCUT  =  500
#ISPIN  =  2
ISMEAR =  0
SIGMA = 0.05
GGA = PE
LWAVE= F
LCHARG = F
#NPAR=4
#ISYM = 0
#LREAL = Auto
#IALGO=48
#NELMDL = -5
#MAGMOM = 62*1 1*1.5 
####################
#LDAU = T
#LASPH = T
#LMAXMIX = 4
#LDAUTYPE = 2
#LDAUL = -1 -1 2
#LDAUU = 5.0 0.0
#LDAUJ = 0.0 0.0
####################
#LSORBIT = T
#SAXIS = 0 0 1
#NBANDS = 24 
#MAGMOM = 0 0 0  0 0 0  0 0 0  0 0 0  0 0 0  0 0 0  0 0 0  0 0 0
