Ga Bi As
   1.0
     4.3001408576999998    0.0000000000000000    0.0000000000000000
     0.0000000000000000    4.3001408576999998    0.0000000000000000
     0.0000000000000000    0.0000000000000000    6.1458611487999999
   2    1    1
Direct
  0.4988434013294027  0.9988434013294027  0.7245794183294029
  0.0000000000000000  0.5000000000000000  0.2742640030000000
  0.0000000000000000  0.0000000000000000  0.0000000000000000
  0.5000000000000000  0.5000000000000000  0.5000000000000000
