Automatically generated mesh
      84
Reciprocal lattice
    0.00000000000000    0.00000000000000    0.00000000000000             1
    0.20000000000000    0.00000000000000    0.00000000000000             4
    0.40000000000000    0.00000000000000    0.00000000000000             4
    0.20000000000000    0.20000000000000    0.00000000000000             4
    0.40000000000000    0.20000000000000    0.00000000000000             8
    0.40000000000000    0.40000000000000    0.00000000000000             4
    0.00000000000000    0.00000000000000    0.33333333333333             2
    0.20000000000000    0.00000000000000    0.33333333333333             8
    0.40000000000000    0.00000000000000    0.33333333333333             8
    0.20000000000000    0.20000000000000    0.33333333333333             8
    0.40000000000000    0.20000000000000    0.33333333333333            16
    0.40000000000000    0.40000000000000    0.33333333333333             8
    0.50000000  0.50000000  0.00000000       0.0
    0.48571429  0.48571429  0.00000000       0.0
    0.47142857  0.47142857  0.00000000       0.0
    0.45714286  0.45714286  0.00000000       0.0
    0.44285714  0.44285714  0.00000000       0.0
    0.42857143  0.42857143  0.00000000       0.0
    0.41428571  0.41428571  0.00000000       0.0
    0.40000000  0.40000000  0.00000000       0.0
    0.38571429  0.38571429  0.00000000       0.0
    0.37142857  0.37142857  0.00000000       0.0
    0.35714286  0.35714286  0.00000000       0.0
    0.34285714  0.34285714  0.00000000       0.0
    0.32857143  0.32857143  0.00000000       0.0
    0.31428571  0.31428571  0.00000000       0.0
    0.30000000  0.30000000  0.00000000       0.0
    0.28571429  0.28571429  0.00000000       0.0
    0.27142857  0.27142857  0.00000000       0.0
    0.25714286  0.25714286  0.00000000       0.0
    0.24285714  0.24285714  0.00000000       0.0
    0.22857143  0.22857143  0.00000000       0.0
    0.21428571  0.21428571  0.00000000       0.0
    0.20000000  0.20000000  0.00000000       0.0
    0.18571429  0.18571429  0.00000000       0.0
    0.17142857  0.17142857  0.00000000       0.0
    0.15714286  0.15714286  0.00000000       0.0
    0.14285714  0.14285714  0.00000000       0.0
    0.12857143  0.12857143  0.00000000       0.0
    0.11428571  0.11428571  0.00000000       0.0
    0.10000000  0.10000000  0.00000000       0.0
    0.08571429  0.08571429  0.00000000       0.0
    0.07142857  0.07142857  0.00000000       0.0
    0.05714286  0.05714286  0.00000000       0.0
    0.04285714  0.04285714  0.00000000       0.0
    0.02857143  0.02857143  0.00000000       0.0
    0.01428571  0.01428571  0.00000000       0.0
    0.00000000  0.00000000  0.00000000       0.0
    0.00000000  0.00000000  0.00000000       0.0
    0.00000000  0.00000000  0.01428571       0.0
    0.00000000  0.00000000  0.02857143       0.0
    0.00000000  0.00000000  0.04285714       0.0
    0.00000000  0.00000000  0.05714286       0.0
    0.00000000  0.00000000  0.07142857       0.0
    0.00000000  0.00000000  0.08571429       0.0
    0.00000000  0.00000000  0.10000000       0.0
    0.00000000  0.00000000  0.11428571       0.0
    0.00000000  0.00000000  0.12857143       0.0
    0.00000000  0.00000000  0.14285714       0.0
    0.00000000  0.00000000  0.15714286       0.0
    0.00000000  0.00000000  0.17142857       0.0
    0.00000000  0.00000000  0.18571429       0.0
    0.00000000  0.00000000  0.20000000       0.0
    0.00000000  0.00000000  0.21428571       0.0
    0.00000000  0.00000000  0.22857143       0.0
    0.00000000  0.00000000  0.24285714       0.0
    0.00000000  0.00000000  0.25714286       0.0
    0.00000000  0.00000000  0.27142857       0.0
    0.00000000  0.00000000  0.28571429       0.0
    0.00000000  0.00000000  0.30000000       0.0
    0.00000000  0.00000000  0.31428571       0.0
    0.00000000  0.00000000  0.32857143       0.0
    0.00000000  0.00000000  0.34285714       0.0
    0.00000000  0.00000000  0.35714286       0.0
    0.00000000  0.00000000  0.37142857       0.0
    0.00000000  0.00000000  0.38571429       0.0
    0.00000000  0.00000000  0.40000000       0.0
    0.00000000  0.00000000  0.41428571       0.0
    0.00000000  0.00000000  0.42857143       0.0
    0.00000000  0.00000000  0.44285714       0.0
    0.00000000  0.00000000  0.45714286       0.0
    0.00000000  0.00000000  0.47142857       0.0
    0.00000000  0.00000000  0.48571429       0.0
    0.00000000  0.00000000  0.50000000       0.0
